n_res = 4;
rc = [ 0, 0, 0, 0 ];
n_tasks = 30;
d = [ 2, 10, 3, 5, 9, 1, 3, 3, 10, 5, 8, 7, 3, 9, 10, 1, 5, 7, 9, 10, 3, 5, 6, 3, 6, 2, 2, 2, 1, 1 ];
rr = [| 0, 0, 0, 0, 0, 0, 0, 0, 0, 0, 0, 0, 0, 0, 0, 0, 0, 0, 0, 0, 0, 0, 0, 0, 0, 0, 0, 0, 0, 0
      | 0, 0, 0, 0, 0, 0, 0, 0, 0, 0, 0, 0, 0, 0, 0, 0, 0, 0, 0, 0, 0, 0, 0, 0, 0, 0, 0, 0, 0, 0
      | 0, 0, 0, 0, 0, 0, 0, 0, 0, 0, 0, 0, 0, 0, 0, 0, 0, 0, 0, 0, 0, 0, 0, 0, 0, 0, 0, 0, 0, 0
      | 0, 0, 0, 0, 0, 0, 0, 0, 0, 0, 0, 0, 0, 0, 0, 0, 0, 0, 0, 0, 0, 0, 0, 0, 0, 0, 0, 0, 0, 0 |];
suc = [ { 4, 12, 21 },
       { 5, 7 },
       { 6, 10, 25 },
       { 11, 17 },
       { 15 },
       { 8, 16 },
       { 9, 14 },
       { 26 },
       { 13 },
       { 19, 26 },
       { 25 },
       { 15 },
       { 18, 20, 30 },
       { 24 },
       { 22, 27 },
       { 19, 24 },
       { 25, 29 },
       { 19 },
       { 28 },
       { 23 },
       { 24, 30 },
       { 28 },
       { 27 },
       { 26 },
       { 27 },
       { 29 },
       { 28 },
       {  },
       {  },
       {  } ];
